Route #1: 15 20 37 36 47 21
Route #2: 24 49 23 43 41 42 22 1
Route #3: 53 14 11 38
Route #4: 3 44 32 9 39
Route #5: 29 5 48 28 2
Route #6: 8 35 19 54 13 27 52
Route #7: 7 10 31 25 18 50
Route #8: 34 46
Route #9: 51 16 33 6
Route #10: 30 45 4
Route #11: 26 12 40 17
Cost 736.4467980894067